p tw 70 9451 2 
1 3 
1 4 
1 5 
1 6 
1 7 
1 8 
1 9 
1 10 
1 11 
1 12 
1 13 
1 14 
1 15 
1 16 
1 17 
1 18 
1 19 
1 24 
1 32 
1 37 
1 43 
1 46 
1 54 
1 55 
1 56 
1 57 
2 3 
2 4 
2 5 
2 6 
2 7 
2 8 
2 9 
2 10 
2 11 
2 16 
2 20 
2 21 
2 22 
2 23 
2 24 
2 25 
2 26 
2 27 
2 32 
2 40 
2 41 
2 59 
2 62 
2 64 
2 67 
2 68 
3 4 
3 5 
3 6 
3 7 
3 8 
3 9 
3 10 
3 11 
3 12 
3 20 
3 28 
3 29 
3 30 
3 31 
3 32 
3 33 
3 34 
3 39 
3 44 
3 49 
3 50 
3 54 
3 65 
3 66 
3 67 
4 5 
4 6 
4 7 
4 8 
4 9 
4 10 
4 13 
4 19 
4 21 
4 24 
4 28 
4 33 
4 35 
4 36 
4 37 
4 38 
4 39 
4 40 
4 44 
4 48 
4 51 
4 58 
4 63 
4 64 
5 6 
5 7 
5 8 
5 9 
5 10 
5 14 
5 18 
5 22 
5 26 
5 28 
5 29 
5 35 
5 41 
5 42 
5 43 
5 44 
5 45 
5 47 
5 50 
5 55 
5 58 
5 61 
5 62 
6 7 
6 8 
6 9 
6 10 
6 15 
6 17 
6 23 
6 27 
6 30 
6 31 
6 36 
6 39 
6 41 
6 45 
6 46 
6 47 
6 48 
6 49 
6 57 
6 61 
6 64 
6 70 
7 8 
7 9 
7 10 
7 15 
7 16 
7 21 
7 26 
7 29 
7 31 
7 40 
7 42 
7 46 
7 50 
7 51 
7 52 
7 53 
7 56 
7 60 
7 63 
7 65 
7 70 
8 9 
8 10 
8 13 
8 17 
8 22 
8 25 
8 30 
8 34 
8 38 
8 42 
8 49 
8 53 
8 54 
8 57 
8 58 
8 59 
8 60 
8 62 
8 63 
8 69 
9 10 
9 12 
9 19 
9 23 
9 27 
9 34 
9 35 
9 38 
9 43 
9 47 
9 51 
9 52 
9 56 
9 59 
9 61 
9 65 
9 66 
9 68 
9 69 
10 14 
10 18 
10 20 
10 25 
10 33 
10 36 
10 37 
10 45 
10 48 
10 52 
10 53 
10 55 
10 60 
10 66 
10 67 
10 68 
10 69 
10 70 
11 12 
11 13 
11 14 
11 15 
11 16 
11 17 
11 18 
11 19 
11 20 
11 21 
11 22 
11 23 
11 24 
11 25 
11 26 
11 27 
11 39 
11 44 
11 49 
11 50 
11 54 
11 65 
11 66 
11 67 
12 13 
12 14 
12 15 
12 16 
12 17 
12 18 
12 19 
12 20 
12 27 
12 28 
12 29 
12 30 
12 31 
12 32 
12 33 
12 34 
12 35 
12 47 
12 51 
12 56 
12 59 
12 66 
12 69 
13 14 
13 15 
13 16 
13 17 
13 18 
13 19 
13 21 
13 22 
13 28 
13 34 
13 35 
13 36 
13 37 
13 38 
13 39 
13 40 
13 49 
13 53 
13 57 
13 62 
13 63 
13 69 
14 15 
14 16 
14 17 
14 18 
14 19 
14 22 
14 25 
14 29 
14 33 
14 35 
14 36 
14 41 
14 42 
14 43 
14 44 
14 45 
14 52 
14 55 
14 67 
14 69 
14 70 
15 16 
15 17 
15 18 
15 19 
15 23 
15 26 
15 29 
15 30 
15 36 
15 40 
15 41 
15 46 
15 47 
15 48 
15 49 
15 56 
15 60 
15 63 
15 65 
15 70 
16 17 
16 18 
16 19 
16 21 
16 31 
16 32 
16 40 
16 41 
16 42 
16 46 
16 50 
16 51 
16 52 
16 53 
16 59 
16 62 
16 64 
16 67 
16 68 
17 18 
17 19 
17 25 
17 27 
17 30 
17 31 
17 38 
17 39 
17 42 
17 45 
17 54 
17 57 
17 58 
17 59 
17 60 
17 61 
17 64 
17 70 
18 19 
18 20 
18 26 
18 28 
18 37 
18 45 
18 47 
18 48 
18 50 
18 53 
18 55 
18 58 
18 60 
18 61 
18 62 
18 66 
18 68 
19 23 
19 24 
19 33 
19 34 
19 38 
19 43 
19 44 
19 48 
19 51 
19 52 
19 58 
19 61 
19 63 
19 64 
19 65 
19 68 
20 21 
20 22 
20 23 
20 24 
20 25 
20 26 
20 27 
20 28 
20 29 
20 30 
20 31 
20 32 
20 33 
20 34 
20 37 
20 45 
20 48 
20 53 
20 60 
20 66 
20 68 
21 22 
21 23 
21 24 
21 25 
21 26 
21 27 
21 28 
21 31 
21 35 
21 36 
21 37 
21 38 
21 39 
21 40 
21 42 
21 46 
21 50 
21 51 
21 52 
21 53 
22 23 
22 24 
22 25 
22 26 
22 27 
22 29 
22 34 
22 35 
22 41 
22 42 
22 43 
22 44 
22 45 
22 49 
22 53 
22 57 
22 62 
22 63 
22 69 
23 24 
23 25 
23 26 
23 27 
23 30 
23 34 
23 36 
23 38 
23 41 
23 43 
23 46 
23 47 
23 48 
23 49 
23 52 
23 61 
23 65 
23 68 
24 25 
24 26 
24 27 
24 32 
24 33 
24 37 
24 43 
24 44 
24 46 
24 48 
24 51 
24 54 
24 55 
24 56 
24 57 
24 58 
24 63 
24 64 
25 26 
25 27 
25 30 
25 33 
25 36 
25 38 
25 42 
25 52 
25 54 
25 55 
25 58 
25 59 
25 60 
25 67 
25 69 
25 70 
26 27 
26 28 
26 29 
26 40 
26 47 
26 50 
26 55 
26 56 
26 58 
26 60 
26 61 
26 62 
26 63 
26 65 
26 70 
27 31 
27 35 
27 39 
27 45 
27 47 
27 51 
27 56 
27 57 
27 59 
27 61 
27 64 
27 66 
27 69 
27 70 
28 29 
28 30 
28 31 
28 32 
28 33 
28 34 
28 35 
28 36 
28 37 
28 38 
28 39 
28 40 
28 47 
28 50 
28 55 
28 58 
28 61 
28 62 
29 30 
29 31 
29 32 
29 33 
29 34 
29 35 
29 40 
29 41 
29 42 
29 43 
29 44 
29 45 
29 56 
29 60 
29 63 
29 65 
29 70 
30 31 
30 32 
30 33 
30 34 
30 36 
30 38 
30 41 
30 42 
30 46 
30 47 
30 48 
30 49 
30 54 
30 58 
30 59 
30 60 
31 32 
31 33 
31 34 
31 39 
31 42 
31 45 
31 46 
31 50 
31 51 
31 52 
31 53 
31 57 
31 61 
31 64 
31 70 
32 33 
32 34 
32 37 
32 40 
32 41 
32 43 
32 46 
32 54 
32 55 
32 56 
32 57 
32 59 
32 62 
32 64 
32 67 
32 68 
33 34 
33 36 
33 44 
33 48 
33 51 
33 52 
33 55 
33 58 
33 63 
33 64 
33 67 
33 69 
33 70 
34 38 
34 43 
34 49 
34 52 
34 53 
34 57 
34 61 
34 62 
34 63 
34 65 
34 68 
34 69 
35 36 
35 37 
35 38 
35 39 
35 40 
35 41 
35 42 
35 43 
35 44 
35 45 
35 47 
35 51 
35 56 
35 59 
35 66 
35 69 
36 37 
36 38 
36 39 
36 40 
36 41 
36 46 
36 47 
36 48 
36 49 
36 52 
36 55 
36 67 
36 69 
36 70 
37 38 
37 39 
37 40 
37 43 
37 45 
37 46 
37 48 
37 53 
37 54 
37 55 
37 56 
37 57 
37 60 
37 66 
37 68 
38 39 
38 40 
38 42 
38 43 
38 52 
38 54 
38 58 
38 59 
38 60 
38 61 
38 65 
38 68 
39 40 
39 44 
39 45 
39 49 
39 50 
39 54 
39 57 
39 61 
39 64 
39 65 
39 66 
39 67 
39 70 
40 41 
40 56 
40 59 
40 60 
40 62 
40 63 
40 64 
40 65 
40 67 
40 68 
40 70 
41 42 
41 43 
41 44 
41 45 
41 46 
41 47 
41 48 
41 49 
41 59 
41 62 
41 64 
41 67 
41 68 
42 43 
42 44 
42 45 
42 46 
42 50 
42 51 
42 52 
42 53 
42 54 
42 58 
42 59 
42 60 
43 44 
43 45 
43 46 
43 52 
43 54 
43 55 
43 56 
43 57 
43 61 
43 65 
43 68 
44 45 
44 48 
44 49 
44 50 
44 51 
44 54 
44 58 
44 63 
44 64 
44 65 
44 66 
44 67 
45 48 
45 53 
45 57 
45 60 
45 61 
45 64 
45 66 
45 68 
45 70 
46 47 
46 48 
46 49 
46 50 
46 51 
46 52 
46 53 
46 54 
46 55 
46 56 
46 57 
47 48 
47 49 
47 50 
47 51 
47 55 
47 56 
47 58 
47 59 
47 61 
47 62 
47 66 
47 69 
48 49 
48 51 
48 53 
48 58 
48 60 
48 63 
48 64 
48 66 
48 68 
49 50 
49 53 
49 54 
49 57 
49 62 
49 63 
49 65 
49 66 
49 67 
49 69 
50 51 
50 52 
50 53 
50 54 
50 55 
50 58 
50 61 
50 62 
50 65 
50 66 
50 67 
51 52 
51 53 
51 56 
51 58 
51 59 
51 63 
51 64 
51 66 
51 69 
52 53 
52 55 
52 61 
52 65 
52 67 
52 68 
52 69 
52 70 
53 57 
53 60 
53 62 
53 63 
53 66 
53 68 
53 69 
54 55 
54 56 
54 57 
54 58 
54 59 
54 60 
54 65 
54 66 
54 67 
55 56 
55 57 
55 58 
55 61 
55 62 
55 67 
55 69 
55 70 
56 57 
56 59 
56 60 
56 63 
56 65 
56 66 
56 69 
56 70 
57 61 
57 62 
57 63 
57 64 
57 69 
57 70 
58 59 
58 60 
58 61 
58 62 
58 63 
58 64 
59 60 
59 62 
59 64 
59 66 
59 67 
59 68 
59 69 
60 63 
60 65 
60 66 
60 68 
60 70 
61 62 
61 64 
61 65 
61 68 
61 70 
62 63 
62 64 
62 67 
62 68 
62 69 
63 64 
63 65 
63 69 
63 70 
64 67 
64 68 
64 70 
65 66 
65 67 
65 68 
65 70 
66 67 
66 68 
66 69 
67 68 
67 69 
67 70 
69 70 
